zaligvinder/models/DRE/data22/11005.txt
丁-0.丂-1?.七-2|丄-3.丅-4.丆-5.万-6.丈-7*.丅-8.丆-9.三-10.丈-11*.丅-12.上-13.下-14.丈-15*.丅-16.丆-17.丌-18.丈-19*.丅-20.丆-21.丌-22.丈-23*.丅-24.丆-25.不-26.与-27.丏-28.丐-29.丈-30*.丅-31.丆-32.丑-33.与-34.丏-35.丒-36.丈-37*.丅-38.专-39.与-40.不-41.且-42.丕-43.丈-44*.丅-45.专-46.与-47.不-48.且-49.丈-50*.丅-51.专-52.与-53.不-54.且-55.丈-56*.丅-57.专-58.不-59.且-60.世-61.丈-62*.丅-63.专-64.不-65.且-66.丈-67*.丅-68.专-69.不-70.且-71.丈-72*.丅-73.专-74.不-75.且-76.丈-77*.丅-78.专-79.不-80.且-81.丈-82*.丅-83.专-84.不-85.且-86.丈-87*.丅-88.专-89.与-90.丑-91.丗-92.丕-93.丈-94*.丅-95.专-96.与-97.丑-98.丗-99.丈-100*.丅-101.专-102.与-103.丑-104.丗-105.丈-106*.丅-107.专-108.丑-109.丗-110.世-111.丈-112*.丅-113.专-114.丑-115.丗-116.丈-117*.丅-118.专-119.丑-120.丗-121.丈-122*.丅-123.专-124.丑-125.丗-126.丈-127*.丅-128.专-129.丑-130.丗-131.丈-132*
((丁-0|丂-1|七-2|丄-3|丅-4|丆-5|万-6|丈-7|三-8|上-9)*.((下-10|丌-11|不-12).(下-13|丌-14|不-15|丁-16|丂-17|七-18|丄-19|丅-20|丆-21|万-22|丈-23|三-24|上-25)*.(与-26.(丁-27|丂-28|七-29|丄-30|丅-31|丆-32|万-33|丈-34|三-35|上-36)*)+.((丌-37|不-38).(丁-39|丂-40|七-41|丄-42|丅-43|丆-44|万-45|丈-46|三-47|上-48)*)*|(与-49.(丁-50|丂-51|七-52|丄-53|丅-54|丆-55|万-56|丈-57|三-58|上-59)*)+.((下-60|丌-61|不-62).(丁-63|丂-64|七-65|丄-66|丅-67|丆-68|万-69|丈-70|三-71|上-72)*)*))?.((丏-73|丐-74).(丁-75|丂-76|七-77|丄-78|丅-79|丆-80|万-81|丈-82|三-83|上-84)*)*.(丑-85.(丌-86|不-87|丁-88|丂-89|七-90|丄-91|丅-92|丆-93|万-94|丈-95|三-96|上-97)*)*.丒-98.(丒-99|专-100|且-101|丁-102|丂-103|七-104|丄-105|丅-106|丆-107|万-108|丈-109|三-110|上-111)*
